20
2 0 19
3 0 6
4 1 18
4 2 15
5 0 15
5 3 18
6 3 4
6 4 19
7 0 1
7 2 12
7 3 15
7 5 15
7 6 1
8 0 14
8 1 17
8 2 7
9 1 6
10 8 11
11 0 19
11 5 18
11 8 12
11 9 4
12 1 17
12 2 14
12 3 14
13 2 14
13 4 15
13 6 11
13 8 20
13 9 9
14 7 2
14 8 19
14 10 11
15 2 10
15 11 10
16 0 14
16 1 9
16 7 5
16 11 8
16 14 6
16 15 3
17 3 2
17 7 7
17 9 6
17 11 20
17 13 18
18 4 3
18 5 12
18 7 13
18 9 16
18 16 9
19 2 7
19 7 9
19 10 18
19 17 1
19 18 10
